432104
82,7,47,40,71,41,15,23,38,12,59,11,30,32,8,2,44,6,25,78,21,46,62,1,16,28,39,34,43,22,49,3,17,81,37,80,36,27,35,13,14,26,9,75,55,77,68,61,65,64,5,19,45,4,24,83,42,70,18,73,10,56,60,63,57,33,79,69,48,58,29,53,66,67,20,76,54,31,52,72,74,51,50